n_machines = 2;
n_resources = 3;
n_jobs = 60;
horizon = 307;
LB = 153;
n_jobs_per_resource = [20, 20, 20];
duration = [4, 8, 8, 8, 1, 3, 6, 7, 3, 6, 6, 3, 5, 2, 6, 4, 6, 6, 1, 9, 3, 3, 5, 9, 1, 7, 6, 6, 8, 9, 6, 6, 8, 3, 7, 9, 3, 5, 9, 3, 3, 2, 2, 8, 2, 3, 6, 5, 5, 2, 4, 9, 8, 2, 3, 6, 2, 1, 8, 8]